p cnf 96 192
55 0
-1 55 0
1 -55 0
56 -16 15 -12 0
-56 16 0
-56 -15 0
-56 12 0
57 -53 0
-57 53 0
-4 56 57 0
4 -56 0
4 -57 0
58 -6 0
-58 6 0
59 -8 0
-59 8 0
-7 58 59 0
7 -58 0
7 -59 0
60 -8 6 5 -4 0
-60 8 0
-60 -6 0
-60 -5 0
-60 4 0
61 -50 0
-61 50 0
-9 60 61 0
9 -60 0
9 -61 0
62 -7 0
-62 7 0
63 -11 0
-63 11 0
-10 62 63 0
10 -62 0
10 -63 0
64 -54 0
-64 54 0
65 -26 24 23 -19 0
-65 26 0
-65 -24 0
-65 -23 0
-65 19 0
-12 64 65 0
12 -64 0
12 -65 0
66 -16 0
-66 16 0
67 -18 0
-67 18 0
-17 66 67 0
17 -66 0
17 -67 0
68 -18 16 15 -54 0
-68 18 0
-68 -16 0
-68 -15 0
-68 54 0
69 -29 28 -52 0
-69 29 0
-69 -28 0
-69 52 0
-19 68 69 0
19 -68 0
19 -69 0
70 -17 0
-70 17 0
71 -21 0
-71 21 0
-20 70 71 0
20 -70 0
20 -71 0
72 -21 17 15 -12 0
-72 21 0
-72 -17 0
-72 -15 0
-72 12 0
73 -51 0
-73 51 0
-22 72 73 0
22 -72 0
22 -73 0
74 -24 23 -19 0
-74 24 0
-74 -23 0
-74 19 0
75 -52 0
-75 52 0
-25 74 75 0
25 -74 0
25 -75 0
76 -24 0
-76 24 0
77 -26 0
-77 26 0
-27 76 77 0
27 -76 0
27 -77 0
78 -29 0
-78 29 0
79 -30 0
-79 30 0
-31 78 79 0
31 -78 0
31 -79 0
80 -47 0
-80 47 0
81 -30 29 28 -25 0
-81 30 0
-81 -29 0
-81 -28 0
-81 25 0
-32 80 81 0
32 -80 0
32 -81 0
82 -34 33 -22 0
-82 34 0
-82 -33 0
-82 22 0
83 -48 0
-83 48 0
-35 82 83 0
35 -82 0
35 -83 0
84 -37 0
-84 37 0
85 -34 0
-85 34 0
-36 84 85 0
36 -84 0
36 -85 0
86 -49 0
-86 49 0
87 -37 34 33 -22 0
-87 37 0
-87 -34 0
-87 -33 0
-87 22 0
-38 86 87 0
38 -86 0
38 -87 0
88 -40 0
-88 40 0
89 -36 0
-89 36 0
-39 88 89 0
39 -88 0
39 -89 0
-47 0
-48 0
-49 0
-50 0
90 -42 41 -48 0
-90 42 0
-90 -41 0
-90 48 0
91 -44 43 -49 0
-91 44 0
-91 -43 0
-91 49 0
-51 90 91 0
51 -90 0
51 -91 0
92 -46 45 -47 0
-92 46 0
-92 -45 0
-92 47 0
-52 92 0
52 -92 0
93 -3 2 0
-93 3 0
-93 -2 0
94 -14 13 -50 0
-94 14 0
-94 -13 0
-94 50 0
-53 93 94 0
53 -93 0
53 -94 0
95 -11 7 5 -53 0
-95 11 0
-95 -7 0
-95 -5 0
-95 53 0
96 -40 36 33 -51 0
-96 40 0
-96 -36 0
-96 -33 0
-96 51 0
-54 95 96 0
54 -95 0
54 -96 0
c p weight 1 1.0 0
c p weight -1 1.0 0
c p weight 2 0.1 0
c p weight -2 0.9 0
c p weight 3 1.0 0
c p weight -3 0.0 0
c p weight 4 1.0 0
c p weight -4 1.0 0
c p weight 5 0.1 0
c p weight -5 0.9 0
c p weight 6 0.3333333333333333 0
c p weight -6 0.6666666666666667 0
c p weight 7 1.0 0
c p weight -7 1.0 0
c p weight 8 0.49999999999999994 0
c p weight -8 0.5 0
c p weight 9 1.0 0
c p weight -9 1.0 0
c p weight 10 1.0 0
c p weight -10 1.0 0
c p weight 11 0.9999999999999997 0
c p weight -11 3.3306690738754696e-16 0
c p weight 12 1.0 0
c p weight -12 1.0 0
c p weight 13 0.1 0
c p weight -13 0.9 0
c p weight 14 1.0 0
c p weight -14 0.0 0
c p weight 15 0.1 0
c p weight -15 0.9 0
c p weight 16 0.3333333333333333 0
c p weight -16 0.6666666666666667 0
c p weight 17 1.0 0
c p weight -17 1.0 0
c p weight 18 0.49999999999999994 0
c p weight -18 0.5 0
c p weight 19 1.0 0
c p weight -19 1.0 0
c p weight 20 1.0 0
c p weight -20 1.0 0
c p weight 21 0.9999999999999997 0
c p weight -21 3.3306690738754696e-16 0
c p weight 22 1.0 0
c p weight -22 1.0 0
c p weight 23 0.1 0
c p weight -23 0.9 0
c p weight 24 0.5 0
c p weight -24 0.5 0
c p weight 25 1.0 0
c p weight -25 1.0 0
c p weight 26 1.0 0
c p weight -26 0.0 0
c p weight 27 1.0 0
c p weight -27 1.0 0
c p weight 28 0.1 0
c p weight -28 0.9 0
c p weight 29 0.5 0
c p weight -29 0.5 0
c p weight 30 1.0 0
c p weight -30 0.0 0
c p weight 31 1.0 0
c p weight -31 1.0 0
c p weight 32 1.0 0
c p weight -32 1.0 0
c p weight 33 0.1 0
c p weight -33 0.9 0
c p weight 34 0.3333333333333333 0
c p weight -34 0.6666666666666667 0
c p weight 35 1.0 0
c p weight -35 1.0 0
c p weight 36 1.0 0
c p weight -36 1.0 0
c p weight 37 0.49999999999999994 0
c p weight -37 0.5 0
c p weight 38 1.0 0
c p weight -38 0.0 0
c p weight 39 1.0 0
c p weight -39 1.0 0
c p weight 40 0.9999999999999997 0
c p weight -40 3.3306690738754696e-16 0
c p weight 41 0.1 0
c p weight -41 0.9 0
c p weight 42 1.0 0
c p weight -42 0.0 0
c p weight 43 0.1 0
c p weight -43 0.9 0
c p weight 44 1.0 0
c p weight -44 0.0 0
c p weight 45 0.1 0
c p weight -45 0.9 0
c p weight 46 1.0 0
c p weight -46 0.0 0
c p weight 47 1.0 0
c p weight -47 1.0 0
c p weight 48 1.0 0
c p weight -48 1.0 0
c p weight 49 1.0 0
c p weight -49 1.0 0
c p weight 50 1.0 0
c p weight -50 1.0 0
c p weight 51 1.0 0
c p weight -51 1.0 0
c p weight 52 1.0 0
c p weight -52 1.0 0
c p weight 53 1.0 0
c p weight -53 1.0 0
c p weight 54 1.0 0
c p weight -54 1.0 0
c p weight 55 1.0 0
c p weight -55 1.0 0
c p weight 56 1.0 0
c p weight -56 1.0 0
c p weight 57 1.0 0
c p weight -57 1.0 0
c p weight 58 1.0 0
c p weight -58 1.0 0
c p weight 59 1.0 0
c p weight -59 1.0 0
c p weight 60 1.0 0
c p weight -60 1.0 0
c p weight 61 1.0 0
c p weight -61 1.0 0
c p weight 62 1.0 0
c p weight -62 1.0 0
c p weight 63 1.0 0
c p weight -63 1.0 0
c p weight 64 1.0 0
c p weight -64 1.0 0
c p weight 65 1.0 0
c p weight -65 1.0 0
c p weight 66 1.0 0
c p weight -66 1.0 0
c p weight 67 1.0 0
c p weight -67 1.0 0
c p weight 68 1.0 0
c p weight -68 1.0 0
c p weight 69 1.0 0
c p weight -69 1.0 0
c p weight 70 1.0 0
c p weight -70 1.0 0
c p weight 71 1.0 0
c p weight -71 1.0 0
c p weight 72 1.0 0
c p weight -72 1.0 0
c p weight 73 1.0 0
c p weight -73 1.0 0
c p weight 74 1.0 0
c p weight -74 1.0 0
c p weight 75 1.0 0
c p weight -75 1.0 0
c p weight 76 1.0 0
c p weight -76 1.0 0
c p weight 77 1.0 0
c p weight -77 1.0 0
c p weight 78 1.0 0
c p weight -78 1.0 0
c p weight 79 1.0 0
c p weight -79 1.0 0
c p weight 80 1.0 0
c p weight -80 1.0 0
c p weight 81 1.0 0
c p weight -81 1.0 0
c p weight 82 1.0 0
c p weight -82 1.0 0
c p weight 83 1.0 0
c p weight -83 1.0 0
c p weight 84 1.0 0
c p weight -84 1.0 0
c p weight 85 1.0 0
c p weight -85 1.0 0
c p weight 86 1.0 0
c p weight -86 1.0 0
c p weight 87 1.0 0
c p weight -87 1.0 0
c p weight 88 1.0 0
c p weight -88 1.0 0
c p weight 89 1.0 0
c p weight -89 1.0 0
c p weight 90 1.0 0
c p weight -90 1.0 0
c p weight 91 1.0 0
c p weight -91 1.0 0
c p weight 92 1.0 0
c p weight -92 1.0 0
c p weight 93 1.0 0
c p weight -93 1.0 0
c p weight 94 1.0 0
c p weight -94 1.0 0
c p weight 95 1.0 0
c p weight -95 1.0 0
c p weight 96 1.0 0
c p weight -96 1.0 0
c p semirings aspmc.semirings.probabilistic 0
c p quantify 1 2 3 4 5 6 7 8 9 10 11 12 13 14 15 16 17 18 19 20 21 22 23 24 25 26 27 28 29 30 31 32 33 34 35 36 37 38 39 40 41 42 43 44 45 46 47 48 49 50 51 52 53 54 55 56 57 58 59 60 61 62 63 64 65 66 67 68 69 70 71 72 73 74 75 76 77 78 79 80 81 82 83 84 85 86 87 88 89 90 91 92 93 94 95 96 0
c p auxilliary 1 4 7 9 10 12 17 19 20 22 25 27 31 32 35 36 39 47 48 49 50 51 52 53 54 55 56 57 58 59 60 61 62 63 64 65 66 67 68 69 70 71 72 73 74 75 76 77 78 79 80 81 82 83 84 85 86 87 88 89 90 91 92 93 94 95 96 0
